954140
954140
954140
936073
936073
936073
936073
929120
926055
921832
921832
917750
902099
902099
902099
902099
900483
894850
882928
867460
867460
867460
867202
859698
859698
859698
857443
857443
853737
853737
853737
852986
852986
849077
849077
849077
849077
849077
849077
846251
846251
843755
843219
828781
828781
828781
828688
827039
827039
823792
823792
822371
822371
818054
818054
813407
813407
813407
813407
813407
800443
800443
800443
800443
800443
800443
800443
800443
794745
794745
793574
793574
785006
785006
785006
770657
770657
770657
770657
770657
770657
769904
767368
767368
767368
767368
763571
763571
763571
762195
762195
759742
759742
759309
757933
757126
756429
741598
741598
741598
